c Standarized MaxSat Instance
c{
c "sha1sum": "f1b1df88277fe3b3dfe3755571f31f37ee548878",
c "nvars": 55,
c "ncls": 495,
c "total_lits": 2475,
c "nhards": 0,
c "nhard_nlits": 0,
c "nhard_len_stats":
c    { "min": 0,
c      "max": 0,
c      "ave": 0.0000,
c      "stddev": 0.0000 },
c "nsofts": 495,
c "nsoft_nlits": 2475,
c "nsoft_len_stats":
c    { "min": 3,
c      "max": 6,
c      "ave": 5.0000,
c      "stddev": 1.4142 },
c "nsoft_wts": 401,
c "soft_wt_stats":
c    { "min": 1,
c      "max": 1000,
c      "ave": 510.8465,
c      "stddev": 290.5261 }
c}
c------------------------------------------------------------
379 1 2 11 0
662 1 3 12 0
887 2 3 20 0
38 11 12 20 0
51 1 4 13 0
442 2 4 21 0
921 11 13 21 0
657 3 4 28 0
997 12 13 28 0
776 20 21 28 0
456 1 5 14 0
851 2 5 22 0
461 11 14 22 0
595 3 5 29 0
471 12 14 29 0
689 20 22 29 0
263 4 5 35 0
113 13 14 35 0
332 21 22 35 0
176 28 29 35 0
236 1 6 15 0
224 2 6 23 0
165 11 15 23 0
178 3 6 30 0
73 12 15 30 0
823 20 23 30 0
95 4 6 36 0
865 13 15 36 0
260 21 23 36 0
977 28 30 36 0
544 5 6 41 0
101 14 15 41 0
791 22 23 41 0
896 29 30 41 0
780 35 36 41 0
224 1 7 16 0
340 2 7 24 0
623 11 16 24 0
893 3 7 31 0
640 12 16 31 0
593 20 24 31 0
405 4 7 37 0
400 13 16 37 0
695 21 24 37 0
416 28 31 37 0
662 5 7 42 0
646 14 16 42 0
230 22 24 42 0
548 29 31 42 0
499 35 37 42 0
220 6 7 46 0
286 15 16 46 0
519 23 24 46 0
701 30 31 46 0
531 36 37 46 0
370 41 42 46 0
454 1 8 17 0
143 2 8 25 0
780 11 17 25 0
749 3 8 32 0
486 12 17 32 0
562 20 25 32 0
468 4 8 38 0
174 13 17 38 0
428 21 25 38 0
611 28 32 38 0
668 5 8 43 0
511 14 17 43 0
421 22 25 43 0
156 29 32 43 0
220 35 38 43 0
677 6 8 47 0
235 15 17 47 0
730 23 25 47 0
46 30 32 47 0
353 36 38 47 0
902 41 43 47 0
99 7 8 50 0
788 16 17 50 0
888 24 25 50 0
382 31 32 50 0
869 37 38 50 0
920 42 43 50 0
840 46 47 50 0
944 1 9 18 0
75 2 9 26 0
563 11 18 26 0
597 3 9 33 0
948 12 18 33 0
684 20 26 33 0
163 4 9 39 0
501 13 18 39 0
713 21 26 39 0
959 28 33 39 0
224 5 9 44 0
930 14 18 44 0
172 22 26 44 0
609 29 33 44 0
294 35 39 44 0
758 6 9 48 0
981 15 18 48 0
679 23 26 48 0
382 30 33 48 0
650 36 39 48 0
790 41 44 48 0
98 7 9 51 0
995 16 18 51 0
606 24 26 51 0
343 31 33 51 0
838 37 39 51 0
985 42 44 51 0
216 46 48 51 0
117 8 9 53 0
616 17 18 53 0
390 25 26 53 0
42 32 33 53 0
171 38 39 53 0
77 43 44 53 0
461 47 48 53 0
584 50 51 53 0
890 1 10 19 0
387 2 10 27 0
62 11 19 27 0
247 3 10 34 0
333 12 19 34 0
195 20 27 34 0
620 4 10 40 0
766 13 19 40 0
846 21 27 40 0
876 28 34 40 0
833 5 10 45 0
513 14 19 45 0
648 22 27 45 0
14 29 34 45 0
301 35 40 45 0
129 6 10 49 0
64 15 19 49 0
42 23 27 49 0
284 30 34 49 0
922 36 40 49 0
99 41 45 49 0
999 7 10 52 0
768 16 19 52 0
456 24 27 52 0
45 31 34 52 0
323 37 40 52 0
27 42 45 52 0
782 46 49 52 0
794 8 10 54 0
623 17 19 54 0
864 25 27 54 0
745 32 34 54 0
557 38 40 54 0
379 43 45 54 0
733 47 49 54 0
798 50 52 54 0
676 9 10 55 0
484 18 19 55 0
906 26 27 55 0
768 33 34 55 0
210 39 40 55 0
589 44 45 55 0
901 48 49 55 0
7 51 52 55 0
985 53 54 55 0
173 -1 -2 -3 -11 -12 -20 0
332 -1 -2 -4 -11 -13 -21 0
372 -1 -3 -4 -12 -13 -28 0
801 -2 -3 -4 -20 -21 -28 0
286 -11 -12 -13 -20 -21 -28 0
385 -1 -2 -5 -11 -14 -22 0
458 -1 -3 -5 -12 -14 -29 0
470 -2 -3 -5 -20 -22 -29 0
892 -11 -12 -14 -20 -22 -29 0
102 -1 -4 -5 -13 -14 -35 0
538 -2 -4 -5 -21 -22 -35 0
394 -11 -13 -14 -21 -22 -35 0
757 -3 -4 -5 -28 -29 -35 0
664 -12 -13 -14 -28 -29 -35 0
637 -20 -21 -22 -28 -29 -35 0
346 -1 -2 -6 -11 -15 -23 0
820 -1 -3 -6 -12 -15 -30 0
847 -2 -3 -6 -20 -23 -30 0
181 -11 -12 -15 -20 -23 -30 0
160 -1 -4 -6 -13 -15 -36 0
978 -2 -4 -6 -21 -23 -36 0
867 -11 -13 -15 -21 -23 -36 0
654 -3 -4 -6 -28 -30 -36 0
9 -12 -13 -15 -28 -30 -36 0
229 -20 -21 -23 -28 -30 -36 0
765 -1 -5 -6 -14 -15 -41 0
709 -2 -5 -6 -22 -23 -41 0
960 -11 -14 -15 -22 -23 -41 0
109 -3 -5 -6 -29 -30 -41 0
550 -12 -14 -15 -29 -30 -41 0
164 -20 -22 -23 -29 -30 -41 0
494 -4 -5 -6 -35 -36 -41 0
355 -13 -14 -15 -35 -36 -41 0
270 -21 -22 -23 -35 -36 -41 0
323 -28 -29 -30 -35 -36 -41 0
682 -1 -2 -7 -11 -16 -24 0
740 -1 -3 -7 -12 -16 -31 0
211 -2 -3 -7 -20 -24 -31 0
56 -11 -12 -16 -20 -24 -31 0
691 -1 -4 -7 -13 -16 -37 0
12 -2 -4 -7 -21 -24 -37 0
392 -11 -13 -16 -21 -24 -37 0
78 -3 -4 -7 -28 -31 -37 0
328 -12 -13 -16 -28 -31 -37 0
876 -20 -21 -24 -28 -31 -37 0
572 -1 -5 -7 -14 -16 -42 0
873 -2 -5 -7 -22 -24 -42 0
297 -11 -14 -16 -22 -24 -42 0
959 -3 -5 -7 -29 -31 -42 0
924 -12 -14 -16 -29 -31 -42 0
681 -20 -22 -24 -29 -31 -42 0
849 -4 -5 -7 -35 -37 -42 0
685 -13 -14 -16 -35 -37 -42 0
597 -21 -22 -24 -35 -37 -42 0
1 -28 -29 -31 -35 -37 -42 0
536 -1 -6 -7 -15 -16 -46 0
19 -2 -6 -7 -23 -24 -46 0
321 -11 -15 -16 -23 -24 -46 0
49 -3 -6 -7 -30 -31 -46 0
730 -12 -15 -16 -30 -31 -46 0
988 -20 -23 -24 -30 -31 -46 0
269 -4 -6 -7 -36 -37 -46 0
592 -13 -15 -16 -36 -37 -46 0
614 -21 -23 -24 -36 -37 -46 0
946 -28 -30 -31 -36 -37 -46 0
348 -5 -6 -7 -41 -42 -46 0
615 -14 -15 -16 -41 -42 -46 0
326 -22 -23 -24 -41 -42 -46 0
500 -29 -30 -31 -41 -42 -46 0
111 -35 -36 -37 -41 -42 -46 0
246 -1 -2 -8 -11 -17 -25 0
935 -1 -3 -8 -12 -17 -32 0
41 -2 -3 -8 -20 -25 -32 0
479 -11 -12 -17 -20 -25 -32 0
380 -1 -4 -8 -13 -17 -38 0
952 -2 -4 -8 -21 -25 -38 0
824 -11 -13 -17 -21 -25 -38 0
459 -3 -4 -8 -28 -32 -38 0
442 -12 -13 -17 -28 -32 -38 0
55 -20 -21 -25 -28 -32 -38 0
520 -1 -5 -8 -14 -17 -43 0
45 -2 -5 -8 -22 -25 -43 0
720 -11 -14 -17 -22 -25 -43 0
712 -3 -5 -8 -29 -32 -43 0
193 -12 -14 -17 -29 -32 -43 0
489 -20 -22 -25 -29 -32 -43 0
715 -4 -5 -8 -35 -38 -43 0
399 -13 -14 -17 -35 -38 -43 0
630 -21 -22 -25 -35 -38 -43 0
133 -28 -29 -32 -35 -38 -43 0
937 -1 -6 -8 -15 -17 -47 0
92 -2 -6 -8 -23 -25 -47 0
962 -11 -15 -17 -23 -25 -47 0
986 -3 -6 -8 -30 -32 -47 0
587 -12 -15 -17 -30 -32 -47 0
721 -20 -23 -25 -30 -32 -47 0
519 -4 -6 -8 -36 -38 -47 0
234 -13 -15 -17 -36 -38 -47 0
568 -21 -23 -25 -36 -38 -47 0
289 -28 -30 -32 -36 -38 -47 0
850 -5 -6 -8 -41 -43 -47 0
871 -14 -15 -17 -41 -43 -47 0
248 -22 -23 -25 -41 -43 -47 0
313 -29 -30 -32 -41 -43 -47 0
851 -35 -36 -38 -41 -43 -47 0
641 -1 -7 -8 -16 -17 -50 0
437 -2 -7 -8 -24 -25 -50 0
305 -11 -16 -17 -24 -25 -50 0
932 -3 -7 -8 -31 -32 -50 0
472 -12 -16 -17 -31 -32 -50 0
984 -20 -24 -25 -31 -32 -50 0
965 -4 -7 -8 -37 -38 -50 0
171 -13 -16 -17 -37 -38 -50 0
598 -21 -24 -25 -37 -38 -50 0
462 -28 -31 -32 -37 -38 -50 0
774 -5 -7 -8 -42 -43 -50 0
380 -14 -16 -17 -42 -43 -50 0
548 -22 -24 -25 -42 -43 -50 0
357 -29 -31 -32 -42 -43 -50 0
679 -35 -37 -38 -42 -43 -50 0
28 -6 -7 -8 -46 -47 -50 0
199 -15 -16 -17 -46 -47 -50 0
207 -23 -24 -25 -46 -47 -50 0
555 -30 -31 -32 -46 -47 -50 0
958 -36 -37 -38 -46 -47 -50 0
65 -41 -42 -43 -46 -47 -50 0
133 -1 -2 -9 -11 -18 -26 0
130 -1 -3 -9 -12 -18 -33 0
837 -2 -3 -9 -20 -26 -33 0
35 -11 -12 -18 -20 -26 -33 0
188 -1 -4 -9 -13 -18 -39 0
65 -2 -4 -9 -21 -26 -39 0
264 -11 -13 -18 -21 -26 -39 0
716 -3 -4 -9 -28 -33 -39 0
967 -12 -13 -18 -28 -33 -39 0
873 -20 -21 -26 -28 -33 -39 0
499 -1 -5 -9 -14 -18 -44 0
594 -2 -5 -9 -22 -26 -44 0
927 -11 -14 -18 -22 -26 -44 0
365 -3 -5 -9 -29 -33 -44 0
719 -12 -14 -18 -29 -33 -44 0
194 -20 -22 -26 -29 -33 -44 0
827 -4 -5 -9 -35 -39 -44 0
309 -13 -14 -18 -35 -39 -44 0
767 -21 -22 -26 -35 -39 -44 0
409 -28 -29 -33 -35 -39 -44 0
759 -1 -6 -9 -15 -18 -48 0
996 -2 -6 -9 -23 -26 -48 0
311 -11 -15 -18 -23 -26 -48 0
219 -3 -6 -9 -30 -33 -48 0
176 -12 -15 -18 -30 -33 -48 0
392 -20 -23 -26 -30 -33 -48 0
363 -4 -6 -9 -36 -39 -48 0
954 -13 -15 -18 -36 -39 -48 0
383 -21 -23 -26 -36 -39 -48 0
566 -28 -30 -33 -36 -39 -48 0
88 -5 -6 -9 -41 -44 -48 0
310 -14 -15 -18 -41 -44 -48 0
902 -22 -23 -26 -41 -44 -48 0
91 -29 -30 -33 -41 -44 -48 0
847 -35 -36 -39 -41 -44 -48 0
296 -1 -7 -9 -16 -18 -51 0
170 -2 -7 -9 -24 -26 -51 0
85 -11 -16 -18 -24 -26 -51 0
401 -3 -7 -9 -31 -33 -51 0
307 -12 -16 -18 -31 -33 -51 0
997 -20 -24 -26 -31 -33 -51 0
602 -4 -7 -9 -37 -39 -51 0
231 -13 -16 -18 -37 -39 -51 0
494 -21 -24 -26 -37 -39 -51 0
217 -28 -31 -33 -37 -39 -51 0
49 -5 -7 -9 -42 -44 -51 0
892 -14 -16 -18 -42 -44 -51 0
645 -22 -24 -26 -42 -44 -51 0
986 -29 -31 -33 -42 -44 -51 0
309 -35 -37 -39 -42 -44 -51 0
350 -6 -7 -9 -46 -48 -51 0
741 -15 -16 -18 -46 -48 -51 0
148 -23 -24 -26 -46 -48 -51 0
280 -30 -31 -33 -46 -48 -51 0
240 -36 -37 -39 -46 -48 -51 0
380 -41 -42 -44 -46 -48 -51 0
111 -1 -8 -9 -17 -18 -53 0
493 -2 -8 -9 -25 -26 -53 0
975 -11 -17 -18 -25 -26 -53 0
270 -3 -8 -9 -32 -33 -53 0
675 -12 -17 -18 -32 -33 -53 0
510 -20 -25 -26 -32 -33 -53 0
653 -4 -8 -9 -38 -39 -53 0
959 -13 -17 -18 -38 -39 -53 0
252 -21 -25 -26 -38 -39 -53 0
794 -28 -32 -33 -38 -39 -53 0
685 -5 -8 -9 -43 -44 -53 0
1000 -14 -17 -18 -43 -44 -53 0
898 -22 -25 -26 -43 -44 -53 0
717 -29 -32 -33 -43 -44 -53 0
107 -35 -38 -39 -43 -44 -53 0
743 -6 -8 -9 -47 -48 -53 0
617 -15 -17 -18 -47 -48 -53 0
423 -23 -25 -26 -47 -48 -53 0
480 -30 -32 -33 -47 -48 -53 0
930 -36 -38 -39 -47 -48 -53 0
361 -41 -43 -44 -47 -48 -53 0
208 -7 -8 -9 -50 -51 -53 0
344 -16 -17 -18 -50 -51 -53 0
286 -24 -25 -26 -50 -51 -53 0
164 -31 -32 -33 -50 -51 -53 0
121 -37 -38 -39 -50 -51 -53 0
150 -42 -43 -44 -50 -51 -53 0
295 -46 -47 -48 -50 -51 -53 0
857 -1 -2 -10 -11 -19 -27 0
462 -1 -3 -10 -12 -19 -34 0
608 -2 -3 -10 -20 -27 -34 0
351 -11 -12 -19 -20 -27 -34 0
784 -1 -4 -10 -13 -19 -40 0
873 -2 -4 -10 -21 -27 -40 0
392 -11 -13 -19 -21 -27 -40 0
459 -3 -4 -10 -28 -34 -40 0
982 -12 -13 -19 -28 -34 -40 0
708 -20 -21 -27 -28 -34 -40 0
139 -1 -5 -10 -14 -19 -45 0
689 -2 -5 -10 -22 -27 -45 0
230 -11 -14 -19 -22 -27 -45 0
365 -3 -5 -10 -29 -34 -45 0
677 -12 -14 -19 -29 -34 -45 0
564 -20 -22 -27 -29 -34 -45 0
441 -4 -5 -10 -35 -40 -45 0
267 -13 -14 -19 -35 -40 -45 0
419 -21 -22 -27 -35 -40 -45 0
561 -28 -29 -34 -35 -40 -45 0
797 -1 -6 -10 -15 -19 -49 0
196 -2 -6 -10 -23 -27 -49 0
867 -11 -15 -19 -23 -27 -49 0
932 -3 -6 -10 -30 -34 -49 0
101 -12 -15 -19 -30 -34 -49 0
635 -20 -23 -27 -30 -34 -49 0
158 -4 -6 -10 -36 -40 -49 0
10 -13 -15 -19 -36 -40 -49 0
751 -21 -23 -27 -36 -40 -49 0
842 -28 -30 -34 -36 -40 -49 0
585 -5 -6 -10 -41 -45 -49 0
209 -14 -15 -19 -41 -45 -49 0
797 -22 -23 -27 -41 -45 -49 0
317 -29 -30 -34 -41 -45 -49 0
43 -35 -36 -40 -41 -45 -49 0
886 -1 -7 -10 -16 -19 -52 0
509 -2 -7 -10 -24 -27 -52 0
363 -11 -16 -19 -24 -27 -52 0
327 -3 -7 -10 -31 -34 -52 0
266 -12 -16 -19 -31 -34 -52 0
888 -20 -24 -27 -31 -34 -52 0
420 -4 -7 -10 -37 -40 -52 0
223 -13 -16 -19 -37 -40 -52 0
616 -21 -24 -27 -37 -40 -52 0
570 -28 -31 -34 -37 -40 -52 0
868 -5 -7 -10 -42 -45 -52 0
332 -14 -16 -19 -42 -45 -52 0
847 -22 -24 -27 -42 -45 -52 0
555 -29 -31 -34 -42 -45 -52 0
980 -35 -37 -40 -42 -45 -52 0
557 -6 -7 -10 -46 -49 -52 0
736 -15 -16 -19 -46 -49 -52 0
192 -23 -24 -27 -46 -49 -52 0
720 -30 -31 -34 -46 -49 -52 0
200 -36 -37 -40 -46 -49 -52 0
966 -41 -42 -45 -46 -49 -52 0
866 -1 -8 -10 -17 -19 -54 0
56 -2 -8 -10 -25 -27 -54 0
603 -11 -17 -19 -25 -27 -54 0
153 -3 -8 -10 -32 -34 -54 0
824 -12 -17 -19 -32 -34 -54 0
503 -20 -25 -27 -32 -34 -54 0
260 -4 -8 -10 -38 -40 -54 0
59 -13 -17 -19 -38 -40 -54 0
572 -21 -25 -27 -38 -40 -54 0
558 -28 -32 -34 -38 -40 -54 0
361 -5 -8 -10 -43 -45 -54 0
177 -14 -17 -19 -43 -45 -54 0
285 -22 -25 -27 -43 -45 -54 0
730 -29 -32 -34 -43 -45 -54 0
682 -35 -38 -40 -43 -45 -54 0
878 -6 -8 -10 -47 -49 -54 0
666 -15 -17 -19 -47 -49 -54 0
842 -23 -25 -27 -47 -49 -54 0
767 -30 -32 -34 -47 -49 -54 0
292 -36 -38 -40 -47 -49 -54 0
693 -41 -43 -45 -47 -49 -54 0
304 -7 -8 -10 -50 -52 -54 0
349 -16 -17 -19 -50 -52 -54 0
142 -24 -25 -27 -50 -52 -54 0
687 -31 -32 -34 -50 -52 -54 0
37 -37 -38 -40 -50 -52 -54 0
931 -42 -43 -45 -50 -52 -54 0
678 -46 -47 -49 -50 -52 -54 0
145 -1 -9 -10 -18 -19 -55 0
730 -2 -9 -10 -26 -27 -55 0
475 -11 -18 -19 -26 -27 -55 0
936 -3 -9 -10 -33 -34 -55 0
773 -12 -18 -19 -33 -34 -55 0
137 -20 -26 -27 -33 -34 -55 0
134 -4 -9 -10 -39 -40 -55 0
485 -13 -18 -19 -39 -40 -55 0
149 -21 -26 -27 -39 -40 -55 0
75 -28 -33 -34 -39 -40 -55 0
967 -5 -9 -10 -44 -45 -55 0
858 -14 -18 -19 -44 -45 -55 0
468 -22 -26 -27 -44 -45 -55 0
835 -29 -33 -34 -44 -45 -55 0
566 -35 -39 -40 -44 -45 -55 0
857 -6 -9 -10 -48 -49 -55 0
798 -15 -18 -19 -48 -49 -55 0
677 -23 -26 -27 -48 -49 -55 0
547 -30 -33 -34 -48 -49 -55 0
916 -36 -39 -40 -48 -49 -55 0
277 -41 -44 -45 -48 -49 -55 0
108 -7 -9 -10 -51 -52 -55 0
822 -16 -18 -19 -51 -52 -55 0
707 -24 -26 -27 -51 -52 -55 0
707 -31 -33 -34 -51 -52 -55 0
613 -37 -39 -40 -51 -52 -55 0
616 -42 -44 -45 -51 -52 -55 0
182 -46 -48 -49 -51 -52 -55 0
967 -8 -9 -10 -53 -54 -55 0
555 -17 -18 -19 -53 -54 -55 0
140 -25 -26 -27 -53 -54 -55 0
237 -32 -33 -34 -53 -54 -55 0
688 -38 -39 -40 -53 -54 -55 0
901 -43 -44 -45 -53 -54 -55 0
874 -47 -48 -49 -53 -54 -55 0
183 -50 -51 -52 -53 -54 -55 0
